1640967
0,18,48,22,59,28,5,24,29,40,63,10,65,25,54,45,33,6,66,37,42,30,21,51,32,56,17,9,13,43,52,36,61,38,50,34,67,7,49,27,62,15,58,35,14,57,8,16,26,44,1,47,3,19,64,12,53,46,23,60,20,2,41,11,31,55,39,4,0